4
8
20
1 1.3 1.55 1.75 2.1
10 27 48 26 36 14 43 48 38 9 16 42 5 20 7 49 48 15 24 15 8 19 42 40 31 6 9 47 30 22 15 7 34 43 41 32 14 35 26 42 13 26 39 22 29 20 5 47 10 49 44 20 31 18 20 20 33 24 14 7 9 33 34 6 38 8 5 8 46 11 8 28 7 12 40 24 37 30 15 36 43 40 43 40 20 8 41 24 47 21 44 42 28 32 23 25 32 43 43 8 34 6 37 42 41 24 22 16 29 42 15 17 17 20 32 30 44 29 29 5 17 16 39 29 16 9 40 11 31 31 47 28 26 24 9 12 31 34 46 43 17 45 46 13 6 21 8 28 39 16 49 7 38 35 34 17 47 21 13 10 